20
    1  5094  3485
    2  6506   326
    3   416  5248
    4  4992  2421
    5  4649   322
    6  5237   795
    7  1457  3043
    8  4815   845
    9  4446  4955
   10  5422  2252
   11  2791  2009
   12  3359  6901
   13  3667  6122
   14  1598  5094
   15  3007   738
   16  3544  4574
   17  6334  3715
   18   766  5882
   19  3994  5367
   20  1893  1984
7001
